Minimize
 obj: X4
Subject To
 -X0 >= -10
 X0 >= 0
 -2 X0 - 2 X1 - 4 X2 - 4 X3 + X6 = 0
 -X1 >= -10
 X1 >= 0
 -2 X1 - 3 X0 + X7 = 0
 -20 X1 - 30 X2 - 50 X0 - 80 X3 + X4 = 0
 -X2 >= -10
 X2 >= 0
 -150 X2 - 200 X1 - 400 X0 - 500 X3 + X8 = 0
 -X2 - 2 X0 - 4 X1 - 5 X3 + X5 = 0
 -X3 >= -10
 X3 >= 0
 -X4 >= -1800
 X4 >= 0
 -X5 >= -120
 X5 >= 8
 -X6 >= -120
 X6 >= 10
 -X7 >= -50
 X7 >= 6
 -X8 >= -12500
 X8 >= 500
Bounds
 0 <= X0 <= 10
 0 <= X1 <= 10
 0 <= X2 <= 10
 0 <= X3 <= 10
 0 <= X4 <= 1800
 8 <= X5 <= 120
 10 <= X6 <= 120
 6 <= X7 <= 50
 500 <= X8 <= 12500
Integers
 X0
 X1
 X2
 X3
 X4
 X5
 X6
 X7
 X8
End
